750
1000 1000
1 799 458
2 798 576
3 798 246
4 795 615
5 795 575
6 794 970
7 794 702
8 792 369
9 792 753
10 791 806
11 791 658
12 791 398
13 791 738
14 790 616
15 788 575
16 787 439
17 786 814
18 784 439
19 784 76
20 783 395
21 783 300
22 781 220
23 781 282
24 780 973
25 779 974
26 778 719
27 778 922
28 777 162
29 777 413
30 776 948
31 774 542
32 773 488
33 772 747
34 771 780
35 770 814
36 770 21
37 769 237
38 768 336
39 767 610
40 767 747
41 766 120
42 765 761
43 763 394
44 762 16
45 762 487
46 752 23
47 752 208
48 752 338
49 750 838
50 749 396
51 748 233
52 747 54
53 746 650
54 746 374
55 746 970
56 745 218
57 744 1
58 744 528
59 744 354
60 744 775
61 743 725
62 742 53
63 741 231
64 740 269
65 740 781
66 738 136
67 738 78
68 737 279
69 735 302
70 734 104
71 733 474
72 732 83
73 732 643
74 730 376
75 730 812
76 729 432
77 728 481
78 726 508
79 725 558
80 722 800
81 721 83
82 718 888
83 717 268
84 717 918
85 716 999
86 715 993
87 715 79
88 714 766
89 714 542
90 712 813
91 712 543
92 711 275
93 710 753
94 710 463
95 709 703
96 708 745
97 707 776
98 707 203
99 705 245
100 704 301
101 704 433
102 703 849
103 702 622
104 701 127
105 700 35
106 699 555
107 699 652
108 699 14
109 699 454
110 698 495
111 698 513
112 698 326
113 697 795
114 696 817
115 695 772
116 695 137
117 694 35
118 692 281
119 692 958
120 688 988
121 687 928
122 686 697
123 686 508
124 685 756
125 685 879
126 685 436
127 685 87
128 684 697
129 684 871
130 682 494
131 681 334
132 681 640
133 680 205
134 678 258
135 678 942
136 678 834
137 678 906
138 678 369
139 677 156
140 675 519
141 674 179
142 674 219
143 674 179
144 672 57
145 672 871
146 672 156
147 670 776
148 668 803
149 667 119
150 667 606
151 666 851
152 664 711
153 662 990
154 662 435
155 662 575
156 661 238
157 660 46
158 660 356
159 660 903
160 659 247
161 656 952
162 655 280
163 654 45
164 653 566
165 652 418
166 651 492
167 650 494
168 650 495
169 650 77
170 649 940
171 648 46
172 648 282
173 647 854
174 646 346
175 646 980
176 646 893
177 645 940
178 643 908
179 642 508
180 642 228
181 642 338
182 641 577
183 639 656
184 638 974
185 638 290
186 638 74
187 636 478
188 636 477
189 634 279
190 634 271
191 634 809
192 633 562
193 633 660
194 632 463
195 631 296
196 631 516
197 630 340
198 630 171
199 629 951
200 628 663
201 627 898
202 625 650
203 625 254
204 624 533
205 623 67
206 623 155
207 621 201
208 620 256
209 619 397
210 618 932
211 618 170
212 614 857
213 614 427
214 613 880
215 611 246
216 610 67
217 609 405
218 605 714
219 605 803
220 605 231
221 605 418
222 605 138
223 604 496
224 603 518
225 603 317
226 602 286
227 601 610
228 600 745
229 600 874
230 596 740
231 594 2
232 594 980
233 593 720
234 593 253
235 592 797
236 592 305
237 591 9
238 590 509
239 590 704
240 589 481
241 588 777
242 587 777
243 584 837
244 582 418
245 582 974
246 581 326
247 580 819
248 580 619
249 578 198
250 577 383
251 577 534
252 575 252
253 574 669
254 574 172
255 572 106
256 571 616
257 571 913
258 570 788
259 570 3
260 568 993
261 568 635
262 567 294
263 566 998
264 566 383
265 566 782
266 565 955
267 564 977
268 563 37
269 561 574
270 561 645
271 558 908
272 558 455
273 556 111
274 555 82
275 554 528
276 554 875
277 553 287
278 553 377
279 552 518
280 551 485
281 550 906
282 549 615
283 548 658
284 547 833
285 543 741
286 543 773
287 542 191
288 540 277
289 539 304
290 537 144
291 537 991
292 535 518
293 534 669
294 532 876
295 528 417
296 528 386
297 527 142
298 527 930
299 526 357
300 524 137
301 523 196
302 520 677
303 520 987
304 518 421
305 517 690
306 517 110
307 516 476
308 516 653
309 516 28
310 516 805
311 515 594
312 515 313
313 515 360
314 514 126
315 514 701
316 513 813
317 512 476
318 512 255
319 511 302
320 510 137
321 510 813
322 510 588
323 509 256
324 509 227
325 509 583
326 508 174
327 506 953
328 506 894
329 504 445
330 503 287
331 503 253
332 503 485
333 503 361
334 502 365
335 502 983
336 501 199
337 501 243
338 499 768
339 499 616
340 498 419
341 498 867
342 497 606
343 494 891
344 494 472
345 494 127
346 493 68
347 492 608
348 490 137
349 490 824
350 490 584
351 489 574
352 487 37
353 486 654
354 485 13
355 484 68
356 484 833
357 480 992
358 479 155
359 479 872
360 478 839
361 478 988
362 477 711
363 474 84
364 474 835
365 473 54
366 472 906
367 472 333
368 471 773
369 470 382
370 470 952
371 469 286
372 469 79
373 469 428
374 469 623
375 468 589
376 467 844
377 467 584
378 466 895
379 466 706
380 466 777
381 466 176
382 466 309
383 464 630
384 463 489
385 461 937
386 461 338
387 456 18
388 455 434
389 453 198
390 453 467
391 451 640
392 449 419
393 447 710
394 445 262
395 444 818
396 443 499
397 441 828
398 440 477
399 439 962
400 438 921
401 438 691
402 437 9
403 436 558
404 436 901
405 435 934
406 434 91
407 434 480
408 430 518
409 430 752
410 429 1000
411 426 319
412 424 130
413 424 311
414 423 679
415 420 474
416 420 390
417 418 767
418 417 864
419 416 836
420 415 434
421 415 26
422 414 889
423 413 937
424 413 37
425 413 672
426 412 963
427 411 533
428 411 229
429 411 778
430 410 365
431 408 318
432 407 471
433 407 212
434 406 413
435 406 686
436 406 44
437 405 901
438 404 130
439 401 836
440 401 928
441 401 926
442 401 115
443 397 177
444 390 94
445 388 905
446 387 412
447 385 351
448 385 604
449 384 138
450 384 35
451 384 384
452 383 926
453 383 41
454 381 112
455 379 107
456 379 684
457 378 265
458 376 65
459 376 398
460 375 976
461 372 302
462 370 712
463 369 397
464 367 706
465 367 775
466 367 799
467 366 660
468 366 151
469 366 457
470 365 150
471 364 810
472 363 956
473 362 480
474 360 59
475 358 321
476 358 12
477 357 330
478 357 241
479 356 324
480 354 355
481 353 999
482 353 370
483 353 645
484 353 976
485 353 725
486 352 786
487 351 944
488 350 869
489 350 990
490 349 900
491 349 806
492 346 915
493 345 796
494 344 282
495 344 66
496 343 756
497 342 471
498 342 230
499 341 282
500 341 970
501 339 130
502 339 616
503 338 751
504 338 886
505 338 780
506 337 537
507 335 823
508 335 377
509 335 682
510 334 583
511 332 259
512 332 184
513 332 619
514 331 766
515 329 79
516 329 866
517 329 691
518 328 662
519 328 602
520 326 216
521 325 81
522 324 654
523 323 965
524 323 961
525 323 383
526 322 204
527 321 784
528 318 96
529 318 664
530 315 48
531 315 45
532 314 49
533 314 199
534 311 216
535 310 649
536 310 484
537 309 441
538 309 78
539 306 160
540 302 596
541 302 288
542 300 453
543 300 264
544 297 306
545 296 891
546 295 433
547 294 573
548 293 1000
549 292 281
550 289 757
551 288 936
552 286 80
553 283 977
554 283 758
555 282 535
556 282 245
557 281 377
558 281 144
559 279 704
560 277 662
561 275 428
562 274 917
563 273 47
564 273 455
565 271 551
566 271 709
567 269 771
568 267 789
569 266 56
570 265 974
571 263 728
572 263 461
573 263 946
574 262 751
575 262 335
576 261 521
577 260 273
578 256 468
579 256 987
580 256 942
581 256 383
582 255 737
583 254 235
584 254 941
585 251 682
586 250 393
587 249 445
588 249 242
589 247 397
590 247 386
591 247 670
592 242 582
593 242 336
594 240 364
595 240 587
596 239 355
597 238 940
598 238 278
599 237 329
600 237 176
601 237 515
602 236 993
603 235 893
604 233 165
605 233 999
606 232 216
607 231 957
608 225 315
609 224 751
610 224 682
611 223 602
612 223 445
613 222 942
614 221 751
615 221 841
616 219 646
617 216 158
618 216 52
619 215 967
620 215 644
621 214 677
622 214 164
623 212 148
624 211 494
625 211 736
626 211 247
627 211 873
628 211 327
629 210 720
630 209 254
631 209 102
632 208 414
633 208 799
634 207 845
635 207 865
636 207 695
637 206 61
638 206 420
639 206 870
640 204 920
641 203 4
642 203 159
643 202 669
644 201 795
645 198 574
646 197 589
647 195 723
648 195 16
649 195 814
650 195 661
651 194 925
652 194 449
653 194 375
654 193 743
655 193 451
656 192 613
657 192 52
658 191 835
659 191 953
660 189 682
661 189 199
662 184 533
663 183 992
664 182 765
665 180 910
666 180 389
667 179 645
668 179 332
669 178 946
670 177 251
671 175 14
672 172 919
673 172 289
674 172 80
675 171 671
676 169 823
677 169 15
678 166 891
679 166 54
680 165 365
681 164 421
682 163 891
683 162 512
684 161 135
685 159 335
686 158 226
687 158 204
688 156 780
689 155 410
690 155 121
691 154 642
692 152 556
693 150 201
694 150 1
695 150 833
696 149 467
697 149 647
698 148 73
699 148 919
700 146 307
701 145 566
702 145 750
703 144 504
704 142 588
705 142 268
706 141 668
707 140 963
708 139 515
709 138 737
710 137 480
711 135 593
712 135 416
713 135 919
714 134 846
715 132 337
716 131 68
717 130 270
718 130 916
719 126 493
720 123 23
721 122 112
722 120 987
723 118 548
724 118 657
725 118 528
726 117 640
727 116 330
728 115 600
729 114 77
730 112 645
731 112 160
732 111 736
733 111 539
734 110 4
735 110 112
736 110 371
737 109 433
738 108 153
739 108 81
740 108 700
741 108 303
742 105 578
743 104 329
744 104 767
745 103 589
746 103 848
747 103 740
748 102 178
749 101 819
750 100 257
